(set-logic ALL)
(set-option :produce-models true)
(declare-sort BoundSet 0)
(declare-sort UnboundSet 0)
(declare-fun IsInThisPicture (BoundSet) Bool)
(declare-fun IsLookingThrough (BoundSet) Bool)
(assert (not (=> (exists ((a BoundSet)) (and 3 (IsInThisPicture a))) (exists ((c BoundSet)) (IsLookingThrough c)))))
(check-sat)
(get-model)